(set-info :smt-lib-version 2.6)
(set-logic QF_S)
(set-info :source |
Generated by: Murphy Berzish, Mitja Kulczynski, Federico Mora, Florin Manea, Joel Day, Dirk Nowotka, Vijay Ganesh, Zhengyang Lu
Generated on: 2020-10-01
Description: Translated from a collection of real-world regex queries, AutomataArk, collected by Loris D’Antoni and Fang Wang: https://github.com/lorisdanto/automatark
Application: Evaluate solvers on real-world regex queries
Target solver: Z3str3RE, CVC4, OSTRICH, Z3seq, Z3str3, Z3-Trau
Publications: Berzish, M., Kulczynski, M., Mora, F., Manea, F., Day, J. D., Nowotka, D., & Ganesh, V. (2021, July). An SMT solver for regular expressions and linear arithmetic over string length. In CAV 2021.
|)
(set-info :license "https://creativecommons.org/licenses/by/4.0/")
(set-info :category "industrial")
(set-info :status sat)

(declare-const X String)
(assert (not (str.in_re X (re.++ (str.to_re "ad.searchsquire.com") (re.* (re.union (str.to_re "\u{a}") (str.to_re "\u{d}"))) (str.to_re "User-Agent:\u{a}")))))
(assert (str.in_re X (re.++ (str.to_re "//update") (re.union (re.range "0" "9") (re.range "A" "Z") (re.range "a" "z") (str.to_re "_")) (str.to_re ".php?p=") (re.+ (re.range "0" "9")) (re.* re.allchar) (str.to_re "User-Agent:") (re.+ (re.union (str.to_re " ") (str.to_re "\u{9}") (str.to_re "\u{a}") (str.to_re "\u{c}") (str.to_re "\u{d}"))) (str.to_re "Mozilla/4.75") (re.union (str.to_re " ") (str.to_re "\u{9}") (str.to_re "\u{a}") (str.to_re "\u{c}") (str.to_re "\u{d}")) (str.to_re "[en]") (re.union (str.to_re " ") (str.to_re "\u{9}") (str.to_re "\u{a}") (str.to_re "\u{c}") (str.to_re "\u{d}")) (str.to_re "(X11;") (re.union (str.to_re " ") (str.to_re "\u{9}") (str.to_re "\u{a}") (str.to_re "\u{c}") (str.to_re "\u{d}")) (str.to_re "U;") (re.union (str.to_re " ") (str.to_re "\u{9}") (str.to_re "\u{a}") (str.to_re "\u{c}") (str.to_re "\u{d}")) (str.to_re "Linux") (re.union (str.to_re " ") (str.to_re "\u{9}") (str.to_re "\u{a}") (str.to_re "\u{c}") (str.to_re "\u{d}")) (str.to_re "2.2.16-3") (re.union (str.to_re " ") (str.to_re "\u{9}") (str.to_re "\u{a}") (str.to_re "\u{c}") (str.to_re "\u{d}")) (str.to_re "i686)/smiH\u{a}"))))
(assert (not (str.in_re X (re.++ (re.union (re.++ (re.union (re.++ (re.union (str.to_re "19") (str.to_re "20")) (re.union (re.++ (str.to_re "0") (re.union (str.to_re "4") (str.to_re "8"))) (re.++ (re.union (str.to_re "2") (str.to_re "4") (str.to_re "6") (str.to_re "8")) (re.union (str.to_re "0") (str.to_re "4") (str.to_re "8"))) (re.++ (re.union (str.to_re "1") (str.to_re "3") (str.to_re "5") (str.to_re "7") (str.to_re "9")) (re.union (str.to_re "2") (str.to_re "6"))))) (str.to_re "2000")) (str.to_re "-") (re.union (re.++ (re.union (re.++ (str.to_re "0") (re.union (str.to_re "1") (str.to_re "3") (str.to_re "5") (str.to_re "7") (str.to_re "8"))) (re.++ (str.to_re "1") (re.union (str.to_re "0") (str.to_re "2")))) (str.to_re "-") (re.union (re.++ (re.union (str.to_re "0") (str.to_re "1") (str.to_re "2")) (re.range "0" "9")) (re.++ (str.to_re "3") (re.union (str.to_re "0") (str.to_re "1"))))) (re.++ (re.union (re.++ (str.to_re "0") (re.union (str.to_re "4") (str.to_re "6") (str.to_re "9"))) (str.to_re "11")) (str.to_re "-") (re.union (re.++ (re.union (str.to_re "0") (str.to_re "1") (str.to_re "2")) (re.range "0" "9")) (str.to_re "30"))) (re.++ (str.to_re "02-") (re.union (str.to_re "0") (str.to_re "1") (str.to_re "2")) (re.range "0" "9")))) (re.++ (re.union (re.++ (re.union (str.to_re "19") (str.to_re "20")) (re.union (re.++ (re.union (str.to_re "0") (str.to_re "2") (str.to_re "4") (str.to_re "6") (str.to_re "8")) (re.union (str.to_re "1") (str.to_re "2") (str.to_re "3") (str.to_re "5") (str.to_re "6") (str.to_re "7") (str.to_re "9"))) (re.++ (re.union (str.to_re "1") (str.to_re "3") (str.to_re "5") (str.to_re "7") (str.to_re "9")) (re.union (str.to_re "0") (str.to_re "1") (str.to_re "3") (str.to_re "4") (str.to_re "5") (str.to_re "7") (str.to_re "8") (str.to_re "9"))))) (str.to_re "1900")) (str.to_re "-") (re.union (re.++ (re.union (re.++ (str.to_re "0") (re.union (str.to_re "1") (str.to_re "3") (str.to_re "5") (str.to_re "7") (str.to_re "8"))) (re.++ (str.to_re "1") (re.union (str.to_re "0") (str.to_re "2")))) (str.to_re "-") (re.union (re.++ (re.union (str.to_re "0") (str.to_re "1") (str.to_re "2")) (re.range "0" "9")) (re.++ (str.to_re "3") (re.union (str.to_re "0") (str.to_re "1"))))) (re.++ (re.union (re.++ (str.to_re "0") (re.union (str.to_re "4") (str.to_re "6") (str.to_re "9"))) (str.to_re "11")) (str.to_re "-") (re.union (re.++ (re.union (str.to_re "0") (str.to_re "1") (str.to_re "2")) (re.range "0" "9")) (str.to_re "30"))) (re.++ (str.to_re "02-") (re.union (str.to_re "0") (str.to_re "1") (str.to_re "2")) (re.range "0" "8"))))) (str.to_re "\u{a}")))))
(assert (not (str.in_re X (re.++ ((_ re.loop 1 1) (re.range "0" "3")) ((_ re.loop 1 1) (re.range "0" "9")) ((_ re.loop 1 1) (re.union (str.to_re "jan") (str.to_re "JAN") (str.to_re "feb") (str.to_re "FEB") (str.to_re "mar") (str.to_re "MAR") (str.to_re "apr") (str.to_re "APR") (str.to_re "may") (str.to_re "MAY") (str.to_re "jun") (str.to_re "JUN") (str.to_re "jul") (str.to_re "JUL") (str.to_re "aug") (str.to_re "AUG") (str.to_re "sep") (str.to_re "SEP") (str.to_re "oct") (str.to_re "OCT") (str.to_re "nov") (str.to_re "NOV") (str.to_re "dec") (str.to_re "DEC"))) (str.to_re "\u{a}")))))
(check-sat)

(exit)
